NAME          ClpDefau  FREE
ROWS
 N  OBJROW
 L  ZMUNI1_PCT
 L  ZMUNI2_PCT
 L  ZMUNI3_PCT
 L  ZMUNI4_PCT
 L  ZMUNI5_PCT
 L  ZMUNI6_PCT
 L  ZMUNI7_PCT
 L  ZMUNI8_PCT
 L  ZMUNI9_PCT
COLUMNS
    QMUNI1 OBJROW 1.          
    QMUNI1 ZMUNI1_PCT 30680.0842  
    QMUNI1 ZMUNI2_PCT 1776.5045   
    QMUNI1 ZMUNI3_PCT 4239.0824   
    QMUNI1 ZMUNI4_PCT 3110.5042   
    QMUNI1 ZMUNI5_PCT 95.7489     
    QMUNI1 ZMUNI6_PCT 298.3094    
    QMUNI1 ZMUNI7_PCT 2394.104    
    QMUNI1 ZMUNI8_PCT 1548.7671   
    QMUNI1 ZMUNI9_PCT 563.8123    
    QMUNI2 OBJROW 1.          
    QMUNI2 ZMUNI1_PCT 1769.4473   
    QMUNI2 ZMUNI2_PCT 36639.4043  
    QMUNI2 ZMUNI3_PCT 2581.0242   
    QMUNI2 ZMUNI4_PCT 2758.9798   
    QMUNI2 ZMUNI5_PCT 245.285     
    QMUNI2 ZMUNI6_PCT 318.718     
    QMUNI2 ZMUNI7_PCT 1604.4616   
    QMUNI2 ZMUNI8_PCT 1503.7537   
    QMUNI2 ZMUNI9_PCT 1236.1527   
    QMUNI3 OBJROW 1.          
    QMUNI3 ZMUNI1_PCT 4539.1082   
    QMUNI3 ZMUNI2_PCT 3013.2293   
    QMUNI3 ZMUNI3_PCT 32341.1942  
    QMUNI3 ZMUNI4_PCT 5468.5593   
    QMUNI3 ZMUNI5_PCT 588.0356    
    QMUNI3 ZMUNI6_PCT 737.381     
    QMUNI3 ZMUNI7_PCT 2915.9546   
    QMUNI3 ZMUNI8_PCT 2265.9302   
    QMUNI3 ZMUNI9_PCT 1609.2301   
    QMUNI4 OBJROW 1.          
    QMUNI4 ZMUNI1_PCT 3451.7288   
    QMUNI4 ZMUNI2_PCT 3134.5367   
    QMUNI4 ZMUNI3_PCT 5619.812    
    QMUNI4 ZMUNI4_PCT 115256.691  
    QMUNI4 ZMUNI5_PCT 628.4713    
    QMUNI4 ZMUNI6_PCT 684.9289    
    QMUNI4 ZMUNI7_PCT 2337.6465   
    QMUNI4 ZMUNI8_PCT 1805.8777   
    QMUNI4 ZMUNI9_PCT 1094.6274   
    QMUNI5 OBJROW 1.          
    QMUNI5 ZMUNI1_PCT 638.5803    
    QMUNI5 ZMUNI2_PCT 555.2292    
    QMUNI5 ZMUNI3_PCT 586.8912    
    QMUNI5 ZMUNI4_PCT 504.8752    
    QMUNI5 ZMUNI5_PCT 39718.2464  
    QMUNI5 ZMUNI6_PCT 3328.7049   
    QMUNI5 ZMUNI7_PCT 1559.0667   
    QMUNI5 ZMUNI8_PCT 1191.7114   
    QMUNI5 ZMUNI9_PCT 1323.8907   
    QMUNI6 OBJROW 1.          
    QMUNI6 ZMUNI1_PCT 281.5246    
    QMUNI6 ZMUNI2_PCT 126.4572    
    QMUNI6 ZMUNI3_PCT 199.6994    
    QMUNI6 ZMUNI4_PCT 123.4055    
    QMUNI6 ZMUNI5_PCT 3068.3517   
    QMUNI6 ZMUNI6_PCT 35398.1018  
    QMUNI6 ZMUNI7_PCT 818.634     
    QMUNI6 ZMUNI8_PCT 449.7528    
    QMUNI6 ZMUNI9_PCT 380.7068    
    QMUNI7 OBJROW 1.          
    QMUNI7 ZMUNI1_PCT 1983.2611   
    QMUNI7 ZMUNI2_PCT 1354.0268   
    QMUNI7 ZMUNI3_PCT 1765.8234   
    QMUNI7 ZMUNI4_PCT 1390.4572   
    QMUNI7 ZMUNI5_PCT 839.4241    
    QMUNI7 ZMUNI6_PCT 1091.5757   
    QMUNI7 ZMUNI7_PCT 43524.9328  
    QMUNI7 ZMUNI8_PCT 3897.8577   
    QMUNI7 ZMUNI9_PCT 2184.6772   
    QMUNI8 OBJROW 1.          
    QMUNI8 ZMUNI1_PCT 1837.3489   
    QMUNI8 ZMUNI2_PCT 1637.4588   
    QMUNI8 ZMUNI3_PCT 1830.101    
    QMUNI8 ZMUNI4_PCT 1503.7537   
    QMUNI8 ZMUNI5_PCT 1160.8123   
    QMUNI8 ZMUNI6_PCT 1206.5888   
    QMUNI8 ZMUNI7_PCT 4819.4885   
    QMUNI8 ZMUNI8_PCT 33784.8663  
    QMUNI8 ZMUNI9_PCT 2767.1814   
    QMUNI9 OBJROW 1.          
    QMUNI9 ZMUNI1_PCT 574.3026    
    QMUNI9 ZMUNI2_PCT 875.8545    
    QMUNI9 ZMUNI3_PCT 636.673     
    QMUNI9 ZMUNI4_PCT 539.2075    
    QMUNI9 ZMUNI5_PCT 506.401     
    QMUNI9 ZMUNI6_PCT 498.7717    
    QMUNI9 ZMUNI7_PCT 1455.6884   
    QMUNI9 ZMUNI8_PCT 1711.6547   
    QMUNI9 ZMUNI9_PCT 30996.8949  
RHS
    RHS ZMUNI1_PCT  -0.63319971
    RHS ZMUNI2_PCT 0.3700444442
    RHS ZMUNI3_PCT 0.1153338718
    RHS ZMUNI4_PCT 1.7895985606
    RHS ZMUNI5_PCT 0.7107066634
    RHS ZMUNI6_PCT 0.3543689674
    RHS ZMUNI7_PCT 0.2041101299
    RHS ZMUNI8_PCT 0.1795629939
    RHS ZMUNI9_PCT 0.0332619995
BOUNDS
 LO BOUND QMUNI1 -0.000555828
 UP BOUND QMUNI1      1.1e+10
 LO BOUND QMUNI2 -0.000388539
 UP BOUND QMUNI2      1.1e+10
 LO BOUND QMUNI3 -0.000460556
 UP BOUND QMUNI3      1.1e+10
 LO BOUND QMUNI4 -0.000159559
 UP BOUND QMUNI4      1.1e+10
 LO BOUND QMUNI5 -0.000261878
 UP BOUND QMUNI5      1.1e+10
 LO BOUND QMUNI6 -0.000391272
 UP BOUND QMUNI6      1.1e+10
 LO BOUND QMUNI7  -4.71129e-6
 UP BOUND QMUNI7      1.1e+10
 LO BOUND QMUNI8 -0.000198031
 UP BOUND QMUNI8      1.1e+10
 LO BOUND QMUNI9 -0.000220489
 UP BOUND QMUNI9      1.1e+10
ENDATA
